p cnf 184 731
22 23 24 25 26 27 28 29 30 31 32 33 34 35 36 37 38 39 0
58 59 60 61 62 63 64 65 66 67 68 69 70 71 72 73 74 0
75 76 77 78 79 80 81 82 83 84 85 86 87 88 89 90 91 0
92 93 94 95 96 97 98 99 100 101 102 103 104 105 106 107 108 109 110 0
111 112 113 114 115 116 117 118 119 120 121 122 123 124 125 126 127 128 129 0
130 131 132 133 134 135 136 137 138 139 140 141 142 143 144 145 146 147 0
167 168 169 170 171 172 173 174 175 176 177 178 179 180 181 182 183 184 0
-1 -58 0
-1 -75 0
-1 -92 0
-1 -111 0
-1 -148 0
-1 -167 0
-58 -75 0
-58 -92 0
-58 -111 0
-58 -148 0
-58 -167 0
-75 -92 0
-75 -111 0
-75 -148 0
-75 -167 0
-92 -111 0
-92 -148 0
-92 -167 0
-111 -148 0
-111 -167 0
-148 -167 0
-2 -40 0
-2 -93 0
-2 -112 0
-2 -130 0
-2 -149 0
-2 -168 0
-40 -93 0
-40 -112 0
-40 -130 0
-40 -149 0
-40 -168 0
-93 -112 0
-93 -130 0
-93 -149 0
-93 -168 0
-112 -130 0
-112 -149 0
-112 -168 0
-130 -149 0
-130 -168 0
-149 -168 0
-3 -22 0
-3 -41 0
-3 -59 0
-3 -76 0
-3 -94 0
-3 -113 0
-3 -131 0
-3 -169 0
-22 -41 0
-22 -59 0
-22 -76 0
-22 -94 0
-22 -113 0
-22 -131 0
-22 -169 0
-41 -59 0
-41 -76 0
-41 -94 0
-41 -113 0
-41 -131 0
-41 -169 0
-59 -76 0
-59 -94 0
-59 -113 0
-59 -131 0
-59 -169 0
-76 -94 0
-76 -113 0
-76 -131 0
-76 -169 0
-94 -113 0
-94 -131 0
-94 -169 0
-113 -131 0
-113 -169 0
-131 -169 0
-4 -23 0
-4 -42 0
-4 -60 0
-4 -77 0
-4 -95 0
-4 -132 0
-4 -150 0
-4 -170 0
-23 -42 0
-23 -60 0
-23 -77 0
-23 -95 0
-23 -132 0
-23 -150 0
-23 -170 0
-42 -60 0
-42 -77 0
-42 -95 0
-42 -132 0
-42 -150 0
-42 -170 0
-60 -77 0
-60 -95 0
-60 -132 0
-60 -150 0
-60 -170 0
-77 -95 0
-77 -132 0
-77 -150 0
-77 -170 0
-95 -132 0
-95 -150 0
-95 -170 0
-132 -150 0
-132 -170 0
-150 -170 0
-5 -24 0
-5 -43 0
-5 -61 0
-5 -78 0
-5 -96 0
-5 -114 0
-5 -151 0
-5 -171 0
-24 -43 0
-24 -61 0
-24 -78 0
-24 -96 0
-24 -114 0
-24 -151 0
-24 -171 0
-43 -61 0
-43 -78 0
-43 -96 0
-43 -114 0
-43 -151 0
-43 -171 0
-61 -78 0
-61 -96 0
-61 -114 0
-61 -151 0
-61 -171 0
-78 -96 0
-78 -114 0
-78 -151 0
-78 -171 0
-96 -114 0
-96 -151 0
-96 -171 0
-114 -151 0
-114 -171 0
-151 -171 0
-6 -25 0
-6 -44 0
-6 -79 0
-6 -97 0
-6 -133 0
-6 -152 0
-6 -172 0
-25 -44 0
-25 -79 0
-25 -97 0
-25 -133 0
-25 -152 0
-25 -172 0
-44 -79 0
-44 -97 0
-44 -133 0
-44 -152 0
-44 -172 0
-79 -97 0
-79 -133 0
-79 -152 0
-79 -172 0
-97 -133 0
-97 -152 0
-97 -172 0
-133 -152 0
-133 -172 0
-152 -172 0
-7 -26 0
-7 -45 0
-7 -98 0
-7 -115 0
-7 -134 0
-7 -153 0
-7 -173 0
-26 -45 0
-26 -98 0
-26 -115 0
-26 -134 0
-26 -153 0
-26 -173 0
-45 -98 0
-45 -115 0
-45 -134 0
-45 -153 0
-45 -173 0
-98 -115 0
-98 -134 0
-98 -153 0
-98 -173 0
-115 -134 0
-115 -153 0
-115 -173 0
-134 -153 0
-134 -173 0
-153 -173 0
-8 -27 0
-8 -46 0
-8 -62 0
-8 -80 0
-8 -99 0
-8 -116 0
-8 -135 0
-8 -154 0
-27 -46 0
-27 -62 0
-27 -80 0
-27 -99 0
-27 -116 0
-27 -135 0
-27 -154 0
-46 -62 0
-46 -80 0
-46 -99 0
-46 -116 0
-46 -135 0
-46 -154 0
-62 -80 0
-62 -99 0
-62 -116 0
-62 -135 0
-62 -154 0
-80 -99 0
-80 -116 0
-80 -135 0
-80 -154 0
-99 -116 0
-99 -135 0
-99 -154 0
-116 -135 0
-116 -154 0
-135 -154 0
-9 -28 0
-9 -47 0
-9 -63 0
-9 -81 0
-9 -100 0
-9 -117 0
-9 -136 0
-9 -155 0
-9 -174 0
-28 -47 0
-28 -63 0
-28 -81 0
-28 -100 0
-28 -117 0
-28 -136 0
-28 -155 0
-28 -174 0
-47 -63 0
-47 -81 0
-47 -100 0
-47 -117 0
-47 -136 0
-47 -155 0
-47 -174 0
-63 -81 0
-63 -100 0
-63 -117 0
-63 -136 0
-63 -155 0
-63 -174 0
-81 -100 0
-81 -117 0
-81 -136 0
-81 -155 0
-81 -174 0
-100 -117 0
-100 -136 0
-100 -155 0
-100 -174 0
-117 -136 0
-117 -155 0
-117 -174 0
-136 -155 0
-136 -174 0
-155 -174 0
-10 -29 0
-10 -48 0
-10 -64 0
-10 -82 0
-10 -101 0
-10 -118 0
-10 -137 0
-10 -156 0
-10 -175 0
-29 -48 0
-29 -64 0
-29 -82 0
-29 -101 0
-29 -118 0
-29 -137 0
-29 -156 0
-29 -175 0
-48 -64 0
-48 -82 0
-48 -101 0
-48 -118 0
-48 -137 0
-48 -156 0
-48 -175 0
-64 -82 0
-64 -101 0
-64 -118 0
-64 -137 0
-64 -156 0
-64 -175 0
-82 -101 0
-82 -118 0
-82 -137 0
-82 -156 0
-82 -175 0
-101 -118 0
-101 -137 0
-101 -156 0
-101 -175 0
-118 -137 0
-118 -156 0
-118 -175 0
-137 -156 0
-137 -175 0
-156 -175 0
-11 -30 0
-11 -65 0
-11 -83 0
-11 -102 0
-11 -119 0
-11 -157 0
-11 -176 0
-30 -65 0
-30 -83 0
-30 -102 0
-30 -119 0
-30 -157 0
-30 -176 0
-65 -83 0
-65 -102 0
-65 -119 0
-65 -157 0
-65 -176 0
-83 -102 0
-83 -119 0
-83 -157 0
-83 -176 0
-102 -119 0
-102 -157 0
-102 -176 0
-119 -157 0
-119 -176 0
-157 -176 0
-12 -31 0
-12 -49 0
-12 -66 0
-12 -84 0
-12 -120 0
-12 -138 0
-12 -158 0
-12 -177 0
-31 -49 0
-31 -66 0
-31 -84 0
-31 -120 0
-31 -138 0
-31 -158 0
-31 -177 0
-49 -66 0
-49 -84 0
-49 -120 0
-49 -138 0
-49 -158 0
-49 -177 0
-66 -84 0
-66 -120 0
-66 -138 0
-66 -158 0
-66 -177 0
-84 -120 0
-84 -138 0
-84 -158 0
-84 -177 0
-120 -138 0
-120 -158 0
-120 -177 0
-138 -158 0
-138 -177 0
-158 -177 0
-13 -32 0
-13 -50 0
-13 -67 0
-13 -85 0
-13 -103 0
-13 -121 0
-13 -139 0
-13 -159 0
-13 -178 0
-32 -50 0
-32 -67 0
-32 -85 0
-32 -103 0
-32 -121 0
-32 -139 0
-32 -159 0
-32 -178 0
-50 -67 0
-50 -85 0
-50 -103 0
-50 -121 0
-50 -139 0
-50 -159 0
-50 -178 0
-67 -85 0
-67 -103 0
-67 -121 0
-67 -139 0
-67 -159 0
-67 -178 0
-85 -103 0
-85 -121 0
-85 -139 0
-85 -159 0
-85 -178 0
-103 -121 0
-103 -139 0
-103 -159 0
-103 -178 0
-121 -139 0
-121 -159 0
-121 -178 0
-139 -159 0
-139 -178 0
-159 -178 0
-14 -33 0
-14 -51 0
-14 -68 0
-14 -86 0
-14 -104 0
-14 -122 0
-14 -140 0
-14 -160 0
-14 -179 0
-33 -51 0
-33 -68 0
-33 -86 0
-33 -104 0
-33 -122 0
-33 -140 0
-33 -160 0
-33 -179 0
-51 -68 0
-51 -86 0
-51 -104 0
-51 -122 0
-51 -140 0
-51 -160 0
-51 -179 0
-68 -86 0
-68 -104 0
-68 -122 0
-68 -140 0
-68 -160 0
-68 -179 0
-86 -104 0
-86 -122 0
-86 -140 0
-86 -160 0
-86 -179 0
-104 -122 0
-104 -140 0
-104 -160 0
-104 -179 0
-122 -140 0
-122 -160 0
-122 -179 0
-140 -160 0
-140 -179 0
-160 -179 0
-15 -34 0
-15 -52 0
-15 -69 0
-15 -87 0
-15 -105 0
-15 -123 0
-15 -141 0
-15 -161 0
-15 -180 0
-34 -52 0
-34 -69 0
-34 -87 0
-34 -105 0
-34 -123 0
-34 -141 0
-34 -161 0
-34 -180 0
-52 -69 0
-52 -87 0
-52 -105 0
-52 -123 0
-52 -141 0
-52 -161 0
-52 -180 0
-69 -87 0
-69 -105 0
-69 -123 0
-69 -141 0
-69 -161 0
-69 -180 0
-87 -105 0
-87 -123 0
-87 -141 0
-87 -161 0
-87 -180 0
-105 -123 0
-105 -141 0
-105 -161 0
-105 -180 0
-123 -141 0
-123 -161 0
-123 -180 0
-141 -161 0
-141 -180 0
-161 -180 0
-16 -53 0
-16 -70 0
-16 -106 0
-16 -124 0
-16 -142 0
-16 -162 0
-16 -181 0
-53 -70 0
-53 -106 0
-53 -124 0
-53 -142 0
-53 -162 0
-53 -181 0
-70 -106 0
-70 -124 0
-70 -142 0
-70 -162 0
-70 -181 0
-106 -124 0
-106 -142 0
-106 -162 0
-106 -181 0
-124 -142 0
-124 -162 0
-124 -181 0
-142 -162 0
-142 -181 0
-162 -181 0
-17 -35 0
-17 -54 0
-17 -88 0
-17 -125 0
-17 -143 0
-17 -163 0
-17 -182 0
-35 -54 0
-35 -88 0
-35 -125 0
-35 -143 0
-35 -163 0
-35 -182 0
-54 -88 0
-54 -125 0
-54 -143 0
-54 -163 0
-54 -182 0
-88 -125 0
-88 -143 0
-88 -163 0
-88 -182 0
-125 -143 0
-125 -163 0
-125 -182 0
-143 -163 0
-143 -182 0
-163 -182 0
-18 -36 0
-18 -55 0
-18 -71 0
-18 -89 0
-18 -107 0
-18 -126 0
-18 -144 0
-18 -164 0
-18 -183 0
-36 -55 0
-36 -71 0
-36 -89 0
-36 -107 0
-36 -126 0
-36 -144 0
-36 -164 0
-36 -183 0
-55 -71 0
-55 -89 0
-55 -107 0
-55 -126 0
-55 -144 0
-55 -164 0
-55 -183 0
-71 -89 0
-71 -107 0
-71 -126 0
-71 -144 0
-71 -164 0
-71 -183 0
-89 -107 0
-89 -126 0
-89 -144 0
-89 -164 0
-89 -183 0
-107 -126 0
-107 -144 0
-107 -164 0
-107 -183 0
-126 -144 0
-126 -164 0
-126 -183 0
-144 -164 0
-144 -183 0
-164 -183 0
-19 -37 0
-19 -56 0
-19 -72 0
-19 -108 0
-19 -127 0
-19 -145 0
-19 -165 0
-37 -56 0
-37 -72 0
-37 -108 0
-37 -127 0
-37 -145 0
-37 -165 0
-56 -72 0
-56 -108 0
-56 -127 0
-56 -145 0
-56 -165 0
-72 -108 0
-72 -127 0
-72 -145 0
-72 -165 0
-108 -127 0
-108 -145 0
-108 -165 0
-127 -145 0
-127 -165 0
-145 -165 0
-20 -38 0
-20 -73 0
-20 -90 0
-20 -109 0
-20 -128 0
-20 -146 0
-20 -166 0
-20 -184 0
-38 -73 0
-38 -90 0
-38 -109 0
-38 -128 0
-38 -146 0
-38 -166 0
-38 -184 0
-73 -90 0
-73 -109 0
-73 -128 0
-73 -146 0
-73 -166 0
-73 -184 0
-90 -109 0
-90 -128 0
-90 -146 0
-90 -166 0
-90 -184 0
-109 -128 0
-109 -146 0
-109 -166 0
-109 -184 0
-128 -146 0
-128 -166 0
-128 -184 0
-146 -166 0
-146 -184 0
-166 -184 0
-21 -39 0
-21 -57 0
-21 -74 0
-21 -91 0
-21 -110 0
-21 -129 0
-21 -147 0
-39 -57 0
-39 -74 0
-39 -91 0
-39 -110 0
-39 -129 0
-39 -147 0
-57 -74 0
-57 -91 0
-57 -110 0
-57 -129 0
-57 -147 0
-74 -91 0
-74 -110 0
-74 -129 0
-74 -147 0
-91 -110 0
-91 -129 0
-91 -147 0
-110 -129 0
-110 -147 0
-129 -147 0
